c File: data_files/evolved_graphs/g4358.col
c
c Auto generated graph
c
p edge 100 2858
e 1 2
e 1 8
e 1 11
e 1 12
e 1 13
e 1 16
e 1 18
e 1 24
e 1 25
e 1 27
e 1 28
e 1 29
e 1 31
e 1 32
e 1 33
e 1 35
e 1 36
e 1 37
e 1 40
e 1 43
e 1 44
e 1 45
e 1 46
e 1 47
e 1 50
e 1 52
e 1 54
e 1 55
e 1 57
e 1 59
e 1 60
e 1 61
e 1 63
e 1 64
e 1 65
e 1 66
e 1 67
e 1 68
e 1 69
e 1 70
e 1 72
e 1 73
e 1 76
e 1 79
e 1 80
e 1 81
e 1 85
e 1 86
e 1 87
e 1 88
e 1 89
e 1 91
e 1 92
e 1 96
e 1 98
e 1 100
e 2 3
e 2 4
e 2 6
e 2 7
e 2 8
e 2 10
e 2 12
e 2 17
e 2 18
e 2 19
e 2 21
e 2 26
e 2 27
e 2 28
e 2 29
e 2 31
e 2 33
e 2 36
e 2 39
e 2 40
e 2 43
e 2 44
e 2 45
e 2 48
e 2 50
e 2 51
e 2 54
e 2 56
e 2 58
e 2 59
e 2 60
e 2 61
e 2 62
e 2 66
e 2 67
e 2 69
e 2 72
e 2 73
e 2 75
e 2 81
e 2 82
e 2 83
e 2 85
e 2 86
e 2 88
e 2 91
e 2 92
e 2 93
e 2 94
e 2 95
e 2 97
e 2 99
e 2 100
e 3 4
e 3 5
e 3 7
e 3 8
e 3 11
e 3 12
e 3 16
e 3 17
e 3 19
e 3 20
e 3 22
e 3 23
e 3 27
e 3 28
e 3 29
e 3 30
e 3 31
e 3 34
e 3 35
e 3 37
e 3 38
e 3 39
e 3 40
e 3 41
e 3 42
e 3 44
e 3 46
e 3 47
e 3 49
e 3 51
e 3 52
e 3 53
e 3 54
e 3 55
e 3 56
e 3 57
e 3 61
e 3 64
e 3 65
e 3 67
e 3 69
e 3 74
e 3 75
e 3 77
e 3 78
e 3 79
e 3 81
e 3 84
e 3 85
e 3 88
e 3 89
e 3 90
e 3 91
e 3 92
e 3 94
e 3 95
e 3 96
e 3 99
e 4 7
e 4 9
e 4 10
e 4 11
e 4 12
e 4 14
e 4 21
e 4 22
e 4 23
e 4 24
e 4 25
e 4 26
e 4 27
e 4 29
e 4 30
e 4 31
e 4 32
e 4 33
e 4 35
e 4 36
e 4 37
e 4 38
e 4 39
e 4 40
e 4 41
e 4 43
e 4 45
e 4 46
e 4 47
e 4 49
e 4 50
e 4 52
e 4 53
e 4 54
e 4 55
e 4 56
e 4 57
e 4 58
e 4 59
e 4 67
e 4 71
e 4 72
e 4 73
e 4 74
e 4 76
e 4 77
e 4 81
e 4 84
e 4 86
e 4 87
e 4 89
e 4 90
e 4 91
e 4 92
e 4 93
e 4 95
e 4 97
e 4 100
e 5 11
e 5 12
e 5 14
e 5 16
e 5 17
e 5 18
e 5 21
e 5 23
e 5 24
e 5 26
e 5 28
e 5 31
e 5 32
e 5 33
e 5 35
e 5 36
e 5 37
e 5 39
e 5 40
e 5 41
e 5 43
e 5 44
e 5 45
e 5 46
e 5 47
e 5 49
e 5 51
e 5 53
e 5 55
e 5 58
e 5 61
e 5 63
e 5 65
e 5 66
e 5 68
e 5 69
e 5 70
e 5 71
e 5 72
e 5 74
e 5 75
e 5 76
e 5 77
e 5 78
e 5 80
e 5 81
e 5 82
e 5 83
e 5 84
e 5 85
e 5 86
e 5 87
e 5 89
e 5 90
e 5 91
e 5 93
e 5 95
e 5 96
e 5 97
e 5 98
e 5 99
e 6 7
e 6 8
e 6 9
e 6 11
e 6 12
e 6 17
e 6 18
e 6 22
e 6 23
e 6 25
e 6 27
e 6 28
e 6 29
e 6 30
e 6 31
e 6 32
e 6 33
e 6 34
e 6 35
e 6 40
e 6 43
e 6 44
e 6 45
e 6 49
e 6 50
e 6 52
e 6 53
e 6 54
e 6 56
e 6 58
e 6 60
e 6 62
e 6 64
e 6 65
e 6 66
e 6 68
e 6 71
e 6 72
e 6 74
e 6 75
e 6 76
e 6 77
e 6 78
e 6 79
e 6 82
e 6 83
e 6 84
e 6 87
e 6 90
e 6 91
e 6 96
e 6 97
e 6 99
e 7 9
e 7 11
e 7 12
e 7 14
e 7 17
e 7 19
e 7 23
e 7 24
e 7 26
e 7 27
e 7 28
e 7 29
e 7 30
e 7 31
e 7 32
e 7 34
e 7 37
e 7 40
e 7 41
e 7 42
e 7 43
e 7 44
e 7 45
e 7 48
e 7 49
e 7 50
e 7 51
e 7 55
e 7 56
e 7 57
e 7 60
e 7 61
e 7 62
e 7 63
e 7 64
e 7 65
e 7 69
e 7 71
e 7 72
e 7 73
e 7 74
e 7 78
e 7 84
e 7 85
e 7 86
e 7 88
e 7 89
e 7 90
e 7 91
e 7 92
e 7 96
e 7 97
e 7 98
e 7 99
e 7 100
e 8 11
e 8 12
e 8 13
e 8 14
e 8 15
e 8 16
e 8 18
e 8 19
e 8 20
e 8 21
e 8 22
e 8 23
e 8 24
e 8 25
e 8 26
e 8 27
e 8 28
e 8 29
e 8 30
e 8 31
e 8 34
e 8 35
e 8 39
e 8 40
e 8 42
e 8 44
e 8 46
e 8 47
e 8 48
e 8 53
e 8 56
e 8 59
e 8 60
e 8 61
e 8 62
e 8 64
e 8 67
e 8 71
e 8 72
e 8 73
e 8 77
e 8 78
e 8 79
e 8 80
e 8 81
e 8 86
e 8 87
e 8 88
e 8 89
e 8 92
e 8 96
e 8 97
e 8 100
e 9 11
e 9 12
e 9 14
e 9 15
e 9 16
e 9 19
e 9 20
e 9 21
e 9 23
e 9 26
e 9 27
e 9 28
e 9 29
e 9 30
e 9 31
e 9 32
e 9 33
e 9 35
e 9 37
e 9 41
e 9 43
e 9 44
e 9 48
e 9 49
e 9 52
e 9 55
e 9 57
e 9 58
e 9 60
e 9 61
e 9 65
e 9 68
e 9 70
e 9 72
e 9 80
e 9 85
e 9 86
e 9 88
e 9 89
e 9 92
e 9 94
e 9 95
e 9 96
e 9 97
e 9 98
e 9 99
e 10 12
e 10 13
e 10 15
e 10 17
e 10 19
e 10 25
e 10 26
e 10 28
e 10 30
e 10 31
e 10 67
e 10 70
e 10 72
e 10 74
e 10 82
e 10 83
e 10 91
e 10 95
e 10 97
e 10 98
e 10 100
e 11 12
e 11 14
e 11 15
e 11 16
e 11 18
e 11 19
e 11 23
e 11 24
e 11 27
e 11 28
e 11 30
e 11 31
e 11 32
e 11 33
e 11 34
e 11 35
e 11 36
e 11 38
e 11 39
e 11 40
e 11 42
e 11 43
e 11 44
e 11 45
e 11 48
e 11 55
e 11 57
e 11 59
e 11 61
e 11 63
e 11 64
e 11 65
e 11 66
e 11 67
e 11 69
e 11 74
e 11 76
e 11 77
e 11 78
e 11 79
e 11 82
e 11 84
e 11 85
e 11 90
e 11 95
e 11 97
e 11 98
e 11 100
e 12 15
e 12 16
e 12 17
e 12 18
e 12 20
e 12 23
e 12 26
e 12 28
e 12 29
e 12 32
e 12 33
e 12 35
e 12 36
e 12 37
e 12 39
e 12 40
e 12 41
e 12 45
e 12 46
e 12 48
e 12 49
e 12 50
e 12 51
e 12 52
e 12 54
e 12 56
e 12 61
e 12 64
e 12 65
e 12 67
e 12 68
e 12 70
e 12 71
e 12 72
e 12 76
e 12 78
e 12 79
e 12 80
e 12 81
e 12 82
e 12 83
e 12 85
e 12 86
e 12 89
e 12 97
e 12 100
e 13 14
e 13 15
e 13 16
e 13 17
e 13 19
e 13 22
e 13 24
e 13 25
e 13 26
e 13 27
e 13 29
e 13 30
e 13 31
e 13 33
e 13 34
e 13 37
e 13 39
e 13 40
e 13 43
e 13 46
e 13 47
e 13 48
e 13 49
e 13 52
e 13 56
e 13 58
e 13 59
e 13 60
e 13 61
e 13 65
e 13 66
e 13 67
e 13 68
e 13 71
e 13 72
e 13 75
e 13 76
e 13 77
e 13 78
e 13 79
e 13 80
e 13 81
e 13 83
e 13 89
e 13 90
e 13 95
e 13 96
e 13 99
e 13 100
e 14 15
e 14 16
e 14 19
e 14 20
e 14 21
e 14 22
e 14 24
e 14 27
e 14 29
e 14 31
e 14 32
e 14 33
e 14 34
e 14 35
e 14 36
e 14 38
e 14 40
e 14 41
e 14 42
e 14 43
e 14 44
e 14 48
e 14 49
e 14 54
e 14 56
e 14 58
e 14 61
e 14 62
e 14 63
e 14 66
e 14 67
e 14 69
e 14 70
e 14 73
e 14 74
e 14 77
e 14 78
e 14 79
e 14 80
e 14 81
e 14 82
e 14 84
e 14 86
e 14 87
e 14 89
e 14 90
e 14 92
e 14 93
e 14 95
e 14 96
e 14 97
e 14 98
e 15 17
e 15 18
e 15 19
e 15 20
e 15 22
e 15 24
e 15 25
e 15 26
e 15 27
e 15 28
e 15 31
e 15 35
e 15 36
e 15 38
e 15 39
e 15 40
e 15 41
e 15 42
e 15 44
e 15 45
e 15 46
e 15 47
e 15 48
e 15 49
e 15 54
e 15 55
e 15 56
e 15 57
e 15 58
e 15 60
e 15 61
e 15 62
e 15 63
e 15 64
e 15 65
e 15 66
e 15 69
e 15 70
e 15 73
e 15 75
e 15 78
e 15 79
e 15 80
e 15 81
e 15 82
e 15 83
e 15 85
e 15 87
e 15 89
e 15 90
e 15 93
e 15 94
e 15 98
e 16 18
e 16 21
e 16 22
e 16 24
e 16 25
e 16 26
e 16 27
e 16 28
e 16 32
e 16 33
e 16 34
e 16 38
e 16 39
e 16 40
e 16 43
e 16 44
e 16 45
e 16 46
e 16 47
e 16 48
e 16 49
e 16 50
e 16 52
e 16 53
e 16 54
e 16 55
e 16 56
e 16 57
e 16 60
e 16 61
e 16 63
e 16 65
e 16 67
e 16 68
e 16 74
e 16 75
e 16 76
e 16 78
e 16 80
e 16 81
e 16 82
e 16 84
e 16 89
e 16 90
e 16 91
e 16 93
e 16 94
e 16 98
e 17 19
e 17 21
e 17 22
e 17 23
e 17 25
e 17 28
e 17 30
e 17 31
e 17 33
e 17 35
e 17 37
e 17 38
e 17 40
e 17 43
e 17 44
e 17 45
e 17 46
e 17 47
e 17 48
e 17 49
e 17 51
e 17 54
e 17 55
e 17 56
e 17 57
e 17 59
e 17 60
e 17 61
e 17 62
e 17 63
e 17 64
e 17 65
e 17 66
e 17 67
e 17 68
e 17 70
e 17 71
e 17 73
e 17 74
e 17 76
e 17 78
e 17 79
e 17 81
e 17 85
e 17 88
e 17 90
e 17 91
e 17 95
e 17 96
e 17 97
e 17 99
e 18 19
e 18 21
e 18 22
e 18 23
e 18 25
e 18 26
e 18 30
e 18 31
e 18 33
e 18 36
e 18 37
e 18 39
e 18 40
e 18 41
e 18 42
e 18 43
e 18 44
e 18 45
e 18 46
e 18 47
e 18 48
e 18 51
e 18 53
e 18 54
e 18 55
e 18 56
e 18 58
e 18 59
e 18 61
e 18 63
e 18 64
e 18 65
e 18 66
e 18 68
e 18 69
e 18 70
e 18 72
e 18 75
e 18 78
e 18 79
e 18 81
e 18 84
e 18 87
e 18 91
e 18 92
e 18 93
e 18 94
e 19 22
e 19 23
e 19 25
e 19 26
e 19 27
e 19 29
e 19 30
e 19 35
e 19 36
e 19 38
e 19 39
e 19 40
e 19 41
e 19 43
e 19 44
e 19 45
e 19 46
e 19 49
e 19 50
e 19 51
e 19 52
e 19 53
e 19 54
e 19 55
e 19 58
e 19 62
e 19 63
e 19 64
e 19 66
e 19 67
e 19 69
e 19 70
e 19 71
e 19 72
e 19 73
e 19 79
e 19 82
e 19 83
e 19 84
e 19 85
e 19 86
e 19 88
e 19 89
e 19 90
e 19 91
e 19 96
e 19 97
e 19 98
e 19 99
e 20 21
e 20 22
e 20 23
e 20 24
e 20 25
e 20 26
e 20 29
e 20 30
e 20 31
e 20 36
e 20 37
e 20 38
e 20 39
e 20 42
e 20 43
e 20 47
e 20 48
e 20 50
e 20 51
e 20 52
e 20 53
e 20 54
e 20 57
e 20 58
e 20 60
e 20 61
e 20 62
e 20 63
e 20 64
e 20 65
e 20 66
e 20 67
e 20 68
e 20 72
e 20 74
e 20 76
e 20 78
e 20 79
e 20 81
e 20 82
e 20 83
e 20 85
e 20 86
e 20 87
e 20 88
e 20 89
e 20 90
e 20 92
e 20 93
e 20 94
e 20 95
e 20 96
e 20 97
e 20 98
e 20 99
e 20 100
e 21 23
e 21 25
e 21 26
e 21 30
e 21 31
e 21 32
e 21 33
e 21 35
e 21 36
e 21 37
e 21 38
e 21 39
e 21 40
e 21 41
e 21 42
e 21 43
e 21 44
e 21 46
e 21 47
e 21 51
e 21 52
e 21 53
e 21 56
e 21 57
e 21 58
e 21 59
e 21 61
e 21 62
e 21 67
e 21 68
e 21 69
e 21 70
e 21 71
e 21 72
e 21 73
e 21 74
e 21 78
e 21 81
e 21 82
e 21 86
e 21 87
e 21 88
e 21 92
e 21 93
e 21 94
e 21 95
e 21 96
e 21 100
e 22 23
e 22 24
e 22 27
e 22 30
e 22 31
e 22 32
e 22 34
e 22 35
e 22 36
e 22 37
e 22 38
e 22 39
e 22 41
e 22 42
e 22 43
e 22 44
e 22 45
e 22 46
e 22 49
e 22 51
e 22 52
e 22 53
e 22 54
e 22 55
e 22 57
e 22 58
e 22 59
e 22 60
e 22 61
e 22 63
e 22 64
e 22 66
e 22 67
e 22 68
e 22 71
e 22 72
e 22 73
e 22 75
e 22 77
e 22 80
e 22 81
e 22 84
e 22 85
e 22 88
e 22 89
e 22 92
e 22 93
e 22 94
e 22 100
e 23 24
e 23 25
e 23 30
e 23 32
e 23 33
e 23 34
e 23 37
e 23 38
e 23 39
e 23 40
e 23 41
e 23 42
e 23 43
e 23 44
e 23 46
e 23 49
e 23 55
e 23 56
e 23 58
e 23 59
e 23 60
e 23 62
e 23 64
e 23 65
e 23 66
e 23 67
e 23 68
e 23 69
e 23 70
e 23 73
e 23 74
e 23 75
e 23 79
e 23 80
e 23 81
e 23 83
e 23 84
e 23 85
e 23 89
e 23 91
e 23 92
e 23 93
e 23 94
e 23 95
e 23 96
e 23 97
e 24 26
e 24 30
e 24 31
e 24 33
e 24 34
e 24 35
e 24 37
e 24 39
e 24 40
e 24 43
e 24 44
e 24 45
e 24 48
e 24 49
e 24 50
e 24 53
e 24 54
e 24 55
e 24 56
e 24 57
e 24 60
e 24 62
e 24 63
e 24 64
e 24 65
e 24 66
e 24 67
e 24 70
e 24 71
e 24 72
e 24 73
e 24 74
e 24 75
e 24 77
e 24 78
e 24 80
e 24 82
e 24 83
e 24 84
e 24 85
e 24 91
e 24 92
e 24 93
e 24 94
e 24 95
e 24 96
e 24 98
e 24 100
e 25 28
e 25 29
e 25 30
e 25 31
e 25 32
e 25 33
e 25 34
e 25 35
e 25 36
e 25 37
e 25 39
e 25 40
e 25 41
e 25 42
e 25 44
e 25 45
e 25 47
e 25 48
e 25 49
e 25 50
e 25 52
e 25 54
e 25 55
e 25 56
e 25 58
e 25 59
e 25 61
e 25 62
e 25 63
e 25 65
e 25 68
e 25 69
e 25 73
e 25 76
e 25 77
e 25 78
e 25 80
e 25 81
e 25 82
e 25 84
e 25 86
e 25 88
e 25 90
e 25 92
e 25 95
e 25 96
e 25 97
e 25 98
e 25 99
e 26 31
e 26 34
e 26 35
e 26 36
e 26 37
e 26 38
e 26 39
e 26 40
e 26 41
e 26 43
e 26 45
e 26 46
e 26 48
e 26 49
e 26 50
e 26 51
e 26 52
e 26 53
e 26 55
e 26 56
e 26 59
e 26 60
e 26 65
e 26 67
e 26 68
e 26 70
e 26 72
e 26 73
e 26 74
e 26 76
e 26 77
e 26 79
e 26 80
e 26 81
e 26 83
e 26 84
e 26 87
e 26 89
e 26 90
e 26 91
e 26 92
e 26 94
e 26 95
e 26 97
e 26 98
e 26 99
e 27 33
e 27 34
e 27 36
e 27 37
e 27 38
e 27 39
e 27 40
e 27 41
e 27 42
e 27 43
e 27 47
e 27 49
e 27 53
e 27 54
e 27 58
e 27 59
e 27 61
e 27 62
e 27 63
e 27 68
e 27 69
e 27 71
e 27 72
e 27 73
e 27 74
e 27 76
e 27 77
e 27 80
e 27 81
e 27 83
e 27 84
e 27 85
e 27 86
e 27 87
e 27 88
e 27 89
e 27 90
e 27 91
e 27 92
e 27 93
e 27 94
e 27 97
e 27 98
e 27 100
e 28 30
e 28 31
e 28 32
e 28 33
e 28 34
e 28 39
e 28 40
e 28 41
e 28 42
e 28 43
e 28 45
e 28 46
e 28 47
e 28 50
e 28 53
e 28 54
e 28 55
e 28 56
e 28 57
e 28 58
e 28 60
e 28 61
e 28 62
e 28 63
e 28 65
e 28 67
e 28 73
e 28 75
e 28 77
e 28 79
e 28 81
e 28 82
e 28 83
e 28 84
e 28 85
e 28 86
e 28 87
e 28 88
e 28 90
e 28 91
e 28 93
e 28 95
e 28 96
e 28 98
e 28 99
e 28 100
e 29 30
e 29 31
e 29 32
e 29 33
e 29 34
e 29 35
e 29 37
e 29 38
e 29 39
e 29 40
e 29 41
e 29 42
e 29 46
e 29 47
e 29 48
e 29 49
e 29 50
e 29 51
e 29 52
e 29 53
e 29 54
e 29 55
e 29 56
e 29 57
e 29 59
e 29 60
e 29 63
e 29 65
e 29 66
e 29 68
e 29 69
e 29 70
e 29 71
e 29 74
e 29 75
e 29 76
e 29 77
e 29 79
e 29 80
e 29 82
e 29 85
e 29 86
e 29 87
e 29 93
e 29 95
e 29 97
e 29 98
e 29 99
e 30 31
e 30 33
e 30 34
e 30 37
e 30 38
e 30 39
e 30 41
e 30 42
e 30 43
e 30 44
e 30 45
e 30 46
e 30 47
e 30 48
e 30 50
e 30 53
e 30 55
e 30 56
e 30 57
e 30 59
e 30 60
e 30 64
e 30 66
e 30 67
e 30 70
e 30 75
e 30 76
e 30 82
e 30 86
e 30 89
e 30 90
e 30 91
e 30 93
e 30 94
e 30 96
e 30 97
e 30 99
e 31 34
e 31 35
e 31 36
e 31 37
e 31 39
e 31 41
e 31 42
e 31 43
e 31 44
e 31 46
e 31 52
e 31 53
e 31 54
e 31 55
e 31 59
e 31 64
e 31 65
e 31 66
e 31 67
e 31 68
e 31 69
e 31 71
e 31 72
e 31 73
e 31 75
e 31 77
e 31 79
e 31 80
e 31 81
e 31 82
e 31 83
e 31 85
e 31 86
e 31 87
e 31 90
e 31 91
e 31 93
e 31 94
e 31 95
e 31 96
e 31 98
e 31 99
e 31 100
e 32 34
e 32 35
e 32 36
e 32 37
e 32 38
e 32 41
e 32 42
e 32 43
e 32 44
e 32 46
e 32 47
e 32 49
e 32 51
e 32 52
e 32 55
e 32 56
e 32 57
e 32 58
e 32 59
e 32 62
e 32 63
e 32 65
e 32 69
e 32 70
e 32 72
e 32 73
e 32 74
e 32 75
e 32 77
e 32 80
e 32 82
e 32 84
e 32 87
e 32 88
e 32 89
e 32 90
e 32 91
e 32 92
e 32 94
e 32 96
e 32 97
e 32 100
e 33 34
e 33 38
e 33 40
e 33 41
e 33 42
e 33 44
e 33 45
e 33 47
e 33 50
e 33 52
e 33 53
e 33 54
e 33 56
e 33 58
e 33 59
e 33 62
e 33 64
e 33 65
e 33 66
e 33 67
e 33 68
e 33 71
e 33 72
e 33 75
e 33 76
e 33 77
e 33 78
e 33 79
e 33 82
e 33 83
e 33 84
e 33 86
e 33 87
e 33 88
e 33 90
e 33 91
e 33 93
e 33 94
e 33 97
e 33 98
e 33 99
e 33 100
e 34 35
e 34 36
e 34 37
e 34 39
e 34 40
e 34 41
e 34 43
e 34 48
e 34 49
e 34 51
e 34 52
e 34 53
e 34 54
e 34 59
e 34 61
e 34 62
e 34 65
e 34 66
e 34 67
e 34 68
e 34 70
e 34 75
e 34 76
e 34 77
e 34 78
e 34 79
e 34 80
e 34 83
e 34 84
e 34 90
e 34 91
e 34 92
e 34 93
e 34 94
e 34 95
e 34 98
e 34 99
e 34 100
e 35 39
e 35 40
e 35 42
e 35 43
e 35 44
e 35 48
e 35 50
e 35 51
e 35 55
e 35 59
e 35 60
e 35 65
e 35 67
e 35 68
e 35 69
e 35 70
e 35 71
e 35 73
e 35 74
e 35 75
e 35 76
e 35 79
e 35 80
e 35 81
e 35 82
e 35 83
e 35 84
e 35 86
e 35 88
e 35 91
e 35 92
e 35 93
e 35 97
e 35 98
e 35 100
e 36 39
e 36 40
e 36 41
e 36 42
e 36 45
e 36 46
e 36 47
e 36 49
e 36 50
e 36 52
e 36 53
e 36 54
e 36 55
e 36 58
e 36 59
e 36 60
e 36 61
e 36 65
e 36 66
e 36 67
e 36 69
e 36 71
e 36 74
e 36 76
e 36 77
e 36 78
e 36 79
e 36 80
e 36 83
e 36 89
e 36 90
e 36 91
e 36 92
e 36 94
e 36 95
e 36 96
e 36 97
e 36 100
e 37 38
e 37 42
e 37 43
e 37 45
e 37 49
e 37 50
e 37 53
e 37 54
e 37 55
e 37 56
e 37 61
e 37 63
e 37 66
e 37 70
e 37 73
e 37 76
e 37 77
e 37 78
e 37 81
e 37 83
e 37 84
e 37 85
e 37 86
e 37 89
e 37 90
e 37 91
e 37 95
e 37 96
e 37 98
e 37 99
e 37 100
e 38 39
e 38 40
e 38 42
e 38 44
e 38 45
e 38 47
e 38 49
e 38 50
e 38 53
e 38 55
e 38 56
e 38 57
e 38 59
e 38 66
e 38 69
e 38 70
e 38 72
e 38 73
e 38 76
e 38 80
e 38 81
e 38 82
e 38 83
e 38 87
e 38 88
e 38 89
e 38 93
e 38 94
e 38 95
e 38 97
e 38 99
e 38 100
e 39 40
e 39 43
e 39 46
e 39 47
e 39 48
e 39 49
e 39 51
e 39 54
e 39 55
e 39 57
e 39 62
e 39 63
e 39 64
e 39 65
e 39 68
e 39 71
e 39 73
e 39 74
e 39 75
e 39 76
e 39 77
e 39 78
e 39 81
e 39 82
e 39 85
e 39 86
e 39 88
e 39 89
e 39 92
e 39 94
e 39 96
e 39 99
e 40 41
e 40 42
e 40 44
e 40 47
e 40 49
e 40 51
e 40 52
e 40 56
e 40 57
e 40 59
e 40 60
e 40 64
e 40 65
e 40 66
e 40 75
e 40 78
e 40 80
e 40 81
e 40 82
e 40 83
e 40 84
e 40 86
e 40 87
e 40 89
e 40 90
e 40 91
e 40 93
e 40 95
e 40 97
e 40 98
e 40 99
e 40 100
e 41 42
e 41 43
e 41 44
e 41 45
e 41 49
e 41 51
e 41 52
e 41 53
e 41 57
e 41 61
e 41 64
e 41 66
e 41 67
e 41 68
e 41 69
e 41 71
e 41 73
e 41 77
e 41 79
e 41 82
e 41 83
e 41 85
e 41 87
e 41 88
e 41 89
e 41 90
e 41 91
e 41 93
e 41 95
e 41 96
e 41 97
e 41 98
e 41 100
e 42 44
e 42 45
e 42 48
e 42 51
e 42 52
e 42 53
e 42 59
e 42 62
e 42 63
e 42 65
e 42 67
e 42 68
e 42 69
e 42 70
e 42 72
e 42 74
e 42 75
e 42 77
e 42 80
e 42 82
e 42 84
e 42 85
e 42 86
e 42 87
e 42 89
e 42 90
e 42 92
e 42 93
e 42 94
e 42 96
e 42 97
e 42 98
e 42 100
e 43 44
e 43 45
e 43 46
e 43 47
e 43 48
e 43 50
e 43 51
e 43 52
e 43 56
e 43 60
e 43 62
e 43 63
e 43 64
e 43 66
e 43 68
e 43 69
e 43 70
e 43 71
e 43 73
e 43 74
e 43 75
e 43 76
e 43 78
e 43 79
e 43 80
e 43 81
e 43 82
e 43 88
e 43 89
e 43 92
e 43 94
e 43 95
e 43 96
e 43 97
e 43 98
e 44 45
e 44 47
e 44 49
e 44 50
e 44 52
e 44 58
e 44 60
e 44 61
e 44 63
e 44 65
e 44 66
e 44 67
e 44 69
e 44 70
e 44 72
e 44 74
e 44 79
e 44 81
e 44 85
e 44 87
e 44 88
e 44 90
e 44 91
e 44 92
e 44 93
e 44 94
e 44 97
e 44 99
e 44 100
e 45 46
e 45 47
e 45 48
e 45 49
e 45 50
e 45 51
e 45 53
e 45 54
e 45 57
e 45 60
e 45 61
e 45 63
e 45 64
e 45 66
e 45 67
e 45 69
e 45 70
e 45 71
e 45 72
e 45 74
e 45 77
e 45 84
e 45 86
e 45 88
e 45 90
e 45 91
e 45 93
e 45 95
e 45 97
e 45 99
e 46 49
e 46 50
e 46 53
e 46 59
e 46 60
e 46 62
e 46 65
e 46 66
e 46 67
e 46 68
e 46 70
e 46 71
e 46 75
e 46 76
e 46 78
e 46 79
e 46 82
e 46 84
e 46 85
e 46 86
e 46 87
e 46 88
e 46 89
e 46 90
e 46 91
e 46 92
e 46 93
e 46 96
e 46 100
e 47 48
e 47 50
e 47 51
e 47 54
e 47 57
e 47 60
e 47 62
e 47 65
e 47 66
e 47 69
e 47 71
e 47 72
e 47 73
e 47 74
e 47 75
e 47 76
e 47 77
e 47 79
e 47 80
e 47 83
e 47 85
e 47 86
e 47 88
e 47 92
e 47 93
e 47 97
e 47 98
e 47 99
e 48 49
e 48 50
e 48 52
e 48 55
e 48 56
e 48 57
e 48 58
e 48 59
e 48 60
e 48 62
e 48 63
e 48 64
e 48 65
e 48 67
e 48 69
e 48 70
e 48 72
e 48 74
e 48 75
e 48 76
e 48 77
e 48 79
e 48 84
e 48 85
e 48 86
e 48 88
e 48 90
e 48 91
e 48 92
e 48 95
e 48 97
e 48 100
e 49 50
e 49 52
e 49 53
e 49 54
e 49 57
e 49 58
e 49 60
e 49 61
e 49 63
e 49 68
e 49 69
e 49 70
e 49 71
e 49 72
e 49 73
e 49 74
e 49 75
e 49 77
e 49 78
e 49 83
e 49 84
e 49 85
e 49 86
e 49 87
e 49 90
e 49 91
e 49 96
e 49 97
e 49 99
e 50 53
e 50 56
e 50 57
e 50 58
e 50 60
e 50 61
e 50 63
e 50 65
e 50 68
e 50 69
e 50 70
e 50 71
e 50 73
e 50 74
e 50 75
e 50 76
e 50 78
e 50 79
e 50 80
e 50 81
e 50 82
e 50 83
e 50 86
e 50 87
e 50 88
e 50 93
e 50 94
e 50 98
e 50 99
e 50 100
e 51 52
e 51 53
e 51 55
e 51 57
e 51 59
e 51 61
e 51 62
e 51 63
e 51 64
e 51 65
e 51 66
e 51 68
e 51 70
e 51 71
e 51 72
e 51 73
e 51 74
e 51 75
e 51 76
e 51 78
e 51 81
e 51 82
e 51 83
e 51 84
e 51 85
e 51 90
e 51 91
e 51 92
e 51 93
e 51 94
e 51 97
e 51 99
e 51 100
e 52 53
e 52 55
e 52 57
e 52 58
e 52 61
e 52 62
e 52 63
e 52 64
e 52 66
e 52 67
e 52 68
e 52 69
e 52 71
e 52 72
e 52 74
e 52 76
e 52 79
e 52 80
e 52 81
e 52 82
e 52 84
e 52 85
e 52 87
e 52 88
e 52 89
e 52 90
e 52 92
e 52 94
e 52 99
e 52 100
e 53 55
e 53 56
e 53 58
e 53 60
e 53 61
e 53 64
e 53 67
e 53 70
e 53 71
e 53 73
e 53 74
e 53 75
e 53 78
e 53 79
e 53 80
e 53 84
e 53 85
e 53 87
e 53 90
e 53 93
e 53 94
e 53 95
e 53 97
e 53 100
e 54 55
e 54 58
e 54 60
e 54 62
e 54 63
e 54 64
e 54 66
e 54 68
e 54 70
e 54 71
e 54 74
e 54 77
e 54 82
e 54 85
e 54 88
e 54 90
e 54 91
e 54 92
e 54 93
e 54 94
e 54 95
e 54 96
e 54 98
e 55 56
e 55 57
e 55 59
e 55 60
e 55 61
e 55 62
e 55 63
e 55 64
e 55 71
e 55 72
e 55 73
e 55 74
e 55 75
e 55 76
e 55 79
e 55 80
e 55 81
e 55 83
e 55 85
e 55 86
e 55 87
e 55 91
e 55 92
e 55 93
e 55 94
e 55 95
e 55 97
e 55 98
e 55 99
e 56 57
e 56 58
e 56 59
e 56 60
e 56 61
e 56 62
e 56 63
e 56 64
e 56 65
e 56 67
e 56 70
e 56 72
e 56 73
e 56 75
e 56 81
e 56 82
e 56 83
e 56 86
e 56 88
e 56 89
e 56 90
e 56 92
e 56 94
e 56 95
e 56 98
e 56 100
e 57 60
e 57 61
e 57 64
e 57 65
e 57 66
e 57 68
e 57 69
e 57 70
e 57 71
e 57 72
e 57 73
e 57 74
e 57 78
e 57 79
e 57 81
e 57 83
e 57 86
e 57 87
e 57 90
e 57 91
e 57 92
e 57 95
e 57 96
e 57 97
e 57 98
e 58 61
e 58 62
e 58 63
e 58 64
e 58 65
e 58 67
e 58 69
e 58 70
e 58 71
e 58 72
e 58 73
e 58 75
e 58 76
e 58 77
e 58 79
e 58 83
e 58 84
e 58 85
e 58 86
e 58 88
e 58 90
e 58 91
e 58 92
e 58 93
e 58 94
e 58 95
e 58 96
e 59 60
e 59 61
e 59 62
e 59 64
e 59 67
e 59 68
e 59 72
e 59 75
e 59 78
e 59 79
e 59 80
e 59 82
e 59 86
e 59 87
e 59 88
e 59 89
e 59 90
e 59 91
e 59 93
e 59 95
e 59 96
e 59 100
e 60 61
e 60 62
e 60 64
e 60 65
e 60 66
e 60 67
e 60 68
e 60 73
e 60 74
e 60 75
e 60 81
e 60 83
e 60 87
e 60 89
e 60 90
e 60 93
e 60 96
e 60 97
e 60 98
e 60 99
e 61 62
e 61 66
e 61 67
e 61 68
e 61 69
e 61 71
e 61 72
e 61 73
e 61 74
e 61 77
e 61 78
e 61 79
e 61 80
e 61 81
e 61 82
e 61 83
e 61 84
e 61 86
e 61 88
e 61 89
e 61 90
e 61 91
e 61 92
e 61 98
e 62 64
e 62 65
e 62 66
e 62 69
e 62 71
e 62 72
e 62 73
e 62 75
e 62 76
e 62 77
e 62 82
e 62 83
e 62 84
e 62 85
e 62 86
e 62 87
e 62 88
e 62 89
e 62 91
e 62 92
e 62 95
e 62 97
e 62 98
e 62 99
e 62 100
e 63 64
e 63 67
e 63 68
e 63 71
e 63 72
e 63 73
e 63 75
e 63 77
e 63 81
e 63 83
e 63 86
e 63 87
e 63 89
e 63 90
e 63 91
e 63 92
e 63 93
e 63 95
e 63 97
e 63 100
e 64 65
e 64 66
e 64 67
e 64 69
e 64 70
e 64 71
e 64 73
e 64 74
e 64 75
e 64 76
e 64 77
e 64 79
e 64 80
e 64 81
e 64 83
e 64 86
e 64 87
e 64 88
e 64 89
e 64 91
e 64 94
e 64 98
e 64 99
e 64 100
e 65 68
e 65 70
e 65 71
e 65 77
e 65 78
e 65 80
e 65 81
e 65 82
e 65 84
e 65 85
e 65 91
e 65 94
e 65 95
e 65 100
e 66 68
e 66 69
e 66 70
e 66 71
e 66 72
e 66 76
e 66 80
e 66 82
e 66 83
e 66 84
e 66 88
e 66 90
e 66 93
e 66 95
e 66 96
e 66 98
e 66 99
e 66 100
e 67 68
e 67 70
e 67 71
e 67 72
e 67 73
e 67 74
e 67 76
e 67 77
e 67 81
e 67 82
e 67 83
e 67 86
e 67 89
e 67 90
e 67 93
e 67 94
e 67 95
e 67 96
e 67 97
e 67 98
e 67 99
e 67 100
e 68 70
e 68 73
e 68 74
e 68 81
e 68 82
e 68 83
e 68 84
e 68 87
e 68 92
e 68 94
e 68 96
e 68 97
e 68 98
e 68 100
e 69 70
e 69 71
e 69 72
e 69 73
e 69 74
e 69 75
e 69 76
e 69 79
e 69 81
e 69 82
e 69 84
e 69 86
e 69 87
e 69 88
e 69 89
e 69 91
e 69 95
e 69 96
e 69 98
e 69 99
e 70 72
e 70 73
e 70 76
e 70 80
e 70 81
e 70 83
e 70 84
e 70 85
e 70 87
e 70 90
e 70 92
e 70 94
e 70 95
e 70 97
e 70 99
e 70 100
e 71 72
e 71 74
e 71 76
e 71 77
e 71 80
e 71 82
e 71 84
e 71 85
e 71 87
e 71 88
e 71 91
e 71 95
e 71 97
e 71 98
e 72 74
e 72 76
e 72 77
e 72 83
e 72 85
e 72 87
e 72 89
e 72 91
e 72 93
e 72 94
e 72 96
e 72 97
e 72 99
e 72 100
e 73 76
e 73 78
e 73 79
e 73 80
e 73 81
e 73 83
e 73 84
e 73 85
e 73 87
e 73 88
e 73 90
e 73 94
e 73 96
e 73 97
e 73 99
e 73 100
e 74 75
e 74 77
e 74 78
e 74 79
e 74 80
e 74 86
e 74 87
e 74 93
e 74 94
e 74 98
e 74 99
e 74 100
e 75 76
e 75 79
e 75 81
e 75 83
e 75 84
e 75 85
e 75 86
e 75 88
e 75 90
e 75 91
e 75 93
e 75 95
e 75 96
e 75 98
e 75 99
e 75 100
e 76 78
e 76 81
e 76 83
e 76 89
e 76 90
e 76 93
e 76 94
e 76 97
e 76 98
e 76 100
e 77 79
e 77 83
e 77 84
e 77 85
e 77 86
e 77 88
e 77 89
e 77 90
e 77 92
e 77 94
e 77 95
e 77 96
e 77 97
e 77 98
e 77 99
e 78 79
e 78 83
e 78 85
e 78 87
e 78 89
e 78 90
e 78 91
e 78 93
e 78 94
e 78 96
e 78 98
e 78 99
e 78 100
e 79 80
e 79 81
e 79 83
e 79 85
e 79 87
e 79 88
e 79 91
e 79 92
e 79 93
e 79 94
e 79 95
e 79 96
e 79 97
e 79 98
e 79 100
e 80 81
e 80 82
e 80 84
e 80 86
e 80 88
e 80 89
e 80 91
e 80 92
e 80 94
e 80 95
e 80 97
e 80 99
e 80 100
e 81 82
e 81 83
e 81 84
e 81 85
e 81 86
e 81 87
e 81 89
e 81 90
e 81 92
e 81 93
e 81 95
e 81 99
e 81 100
e 82 83
e 82 86
e 82 87
e 82 88
e 82 90
e 82 91
e 82 94
e 82 98
e 83 86
e 83 87
e 83 88
e 83 89
e 83 91
e 83 92
e 83 93
e 83 96
e 83 97
e 84 86
e 84 88
e 84 89
e 84 90
e 84 91
e 84 92
e 84 93
e 84 95
e 84 96
e 84 97
e 84 98
e 84 100
e 85 89
e 85 90
e 85 92
e 85 98
e 85 100
e 86 88
e 86 91
e 86 92
e 86 96
e 86 97
e 86 98
e 86 99
e 87 90
e 87 91
e 87 93
e 87 98
e 87 99
e 87 100
e 88 89
e 88 90
e 88 91
e 88 94
e 88 95
e 88 96
e 88 100
e 89 91
e 89 92
e 89 93
e 89 94
e 89 95
e 89 96
e 89 98
e 89 99
e 90 91
e 90 92
e 90 94
e 90 96
e 90 98
e 90 100
e 91 92
e 91 93
e 91 94
e 91 95
e 91 96
e 91 97
e 92 94
e 92 95
e 92 97
e 92 98
e 92 99
e 92 100
e 93 94
e 93 95
e 93 96
e 93 97
e 93 98
e 93 99
e 93 100
e 94 96
e 94 98
e 94 99
e 95 96
e 95 97
e 95 98
e 95 99
e 95 100
e 96 97
e 96 98
e 96 99
e 96 100
e 97 98
e 97 99
e 97 100
e 98 99
e 98 100
